<?xml version = "1.0" standalone="yes"?>
<!-- This file has been generated by DOcplex version 2.23.222  -->
<CPLEXSolution version="1.0">
 <header
   problemName="CVRP"
   objectiveValue="21238.3"
  />
 <variables>
  <variable name="x_0_2" index="1" value="1.00000"/>
  <variable name="x_0_3" index="2" value="1.00000"/>
  <variable name="x_0_5" index="4" value="1.00000"/>
  <variable name="x_0_8" index="7" value="1.00000"/>
  <variable name="x_0_9" index="8" value="1.00000"/>
  <variable name="x_0_11" index="10" value="1.00000"/>
  <variable name="x_0_12" index="11" value="1.00000"/>
  <variable name="x_0_14" index="13" value="1.00000"/>
  <variable name="x_0_15" index="14" value="1.00000"/>
  <variable name="x_0_16" index="15" value="1.00000"/>
  <variable name="x_0_17" index="16" value="1.00000"/>
  <variable name="x_0_18" index="17" value="1.00000"/>
  <variable name="x_0_20" index="19" value="1.00000"/>
  <variable name="x_0_22" index="21" value="1.00000"/>
  <variable name="x_0_23" index="22" value="1.00000"/>
  <variable name="x_0_25" index="24" value="1.00000"/>
  <variable name="x_0_28" index="27" value="1.00000"/>
  <variable name="x_1_0" index="29" value="1.00000"/>
  <variable name="x_2_0" index="58" value="1.00000"/>
  <variable name="x_3_0" index="87" value="1.00000"/>
  <variable name="x_4_0" index="116" value="1.00000"/>
  <variable name="x_5_7" index="151" value="1.00000"/>
  <variable name="x_6_29" index="202" value="1.00000"/>
  <variable name="x_7_26" index="228" value="1.00000"/>
  <variable name="x_8_1" index="233" value="1.00000"/>
  <variable name="x_9_0" index="261" value="1.00000"/>
  <variable name="x_10_0" index="290" value="1.00000"/>
  <variable name="x_11_0" index="319" value="1.00000"/>
  <variable name="x_12_0" index="348" value="1.00000"/>
  <variable name="x_13_4" index="381" value="1.00000"/>
  <variable name="x_14_10" index="416" value="1.00000"/>
  <variable name="x_15_19" index="453" value="1.00000"/>
  <variable name="x_16_0" index="464" value="1.00000"/>
  <variable name="x_17_0" index="493" value="1.00000"/>
  <variable name="x_18_13" index="535" value="1.00000"/>
  <variable name="x_19_0" index="551" value="1.00000"/>
  <variable name="x_20_27" index="606" value="1.00000"/>
  <variable name="x_21_0" index="609" value="1.00000"/>
  <variable name="x_22_0" index="638" value="1.00000"/>
  <variable name="x_23_0" index="667" value="1.00000"/>
  <variable name="x_24_0" index="696" value="1.00000"/>
  <variable name="x_25_6" index="731" value="1.00000"/>
  <variable name="x_26_0" index="754" value="1.00000"/>
  <variable name="x_27_24" index="807" value="1.00000"/>
  <variable name="x_28_21" index="833" value="1.00000"/>
  <variable name="x_29_0" index="841" value="1.00000"/>
  <variable name="u_1" index="870" value="51.00000"/>
  <variable name="u_2" index="871" value="37.00000"/>
  <variable name="u_3" index="872" value="51.00000"/>
  <variable name="u_4" index="873" value="46.00000"/>
  <variable name="u_5" index="874" value="35.00000"/>
  <variable name="u_6" index="875" value="50.00000"/>
  <variable name="u_7" index="876" value="40.00000"/>
  <variable name="u_8" index="877" value="24.00000"/>
  <variable name="u_9" index="878" value="37.00000"/>
  <variable name="u_10" index="879" value="50.00000"/>
  <variable name="u_11" index="880" value="48.00000"/>
  <variable name="u_12" index="881" value="51.00000"/>
  <variable name="u_13" index="882" value="39.00000"/>
  <variable name="u_14" index="883" value="25.00000"/>
  <variable name="u_15" index="884" value="32.00000"/>
  <variable name="u_16" index="885" value="51.00000"/>
  <variable name="u_17" index="886" value="51.00000"/>
  <variable name="u_18" index="887" value="32.00000"/>
  <variable name="u_19" index="888" value="51.00000"/>
  <variable name="u_20" index="889" value="6.00000"/>
  <variable name="u_21" index="890" value="51.00000"/>
  <variable name="u_22" index="891" value="51.00000"/>
  <variable name="u_23" index="892" value="30.00000"/>
  <variable name="u_24" index="893" value="51.00000"/>
  <variable name="u_25" index="894" value="30.00000"/>
  <variable name="u_26" index="895" value="49.00000"/>
  <variable name="u_27" index="896" value="26.00000"/>
  <variable name="u_28" index="897" value="45.00000"/>
  <variable name="u_29" index="898" value="51.00000"/>
 </variables>
</CPLEXSolution>
